p cnf 16 60
c p weight 10 0 0
c p weight -10 1 0
c p weight 11 1.0 0
c p weight -11 1 0
6 -5 3 0
6 -5 4 0
-6 5 3 0
-6 5 4 0
6 5 -3 -4 0
-6 -5 -3 -4 0
7 3 -4 0
7 -3 4 0
-7 3 4 0
-7 -3 -4 0
8 9 -6 0
8 -6 7 0
-8 9 6 0
-8 6 7 0
8 -6 -3 0
-8 6 -3 0
8 -9 6 3 -7 0
-8 -9 -6 3 -7 0
9 -3 7 0
-9 3 7 0
-10 7 0
9 -10 -3 0
-9 -10 3 0
9 10 3 -7 0
-9 10 -3 -7 0
-11 7 0
9 -11 3 0
-9 -11 -3 0
9 11 -3 -7 0
-9 11 3 -7 0
12 -8 9 0
12 -8 7 0
-12 8 9 0
-12 8 7 0
12 8 -9 -7 0
-12 -8 -9 -7 0
13 9 -7 0
13 -9 7 0
-13 9 7 0
-13 -9 -7 0
14 -12 9 0
14 -12 2 0
-14 12 9 0
-14 12 2 0
14 -12 1 -13 0
14 -12 -1 13 0
-14 12 1 -13 0
-14 12 -1 13 0
14 12 -9 1 13 -2 0
14 12 -9 -1 -13 -2 0
-14 -12 -9 1 13 -2 0
-14 -12 -9 -1 -13 -2 0
16 9 -1 0
16 -9 1 0
-16 9 1 0
-16 -9 -1 0
15 13 -2 0
15 -13 2 0
-15 13 2 0
-15 -13 -2 0
